(set-info :source |printed by MathSAT|)
(declare-fun |.x{297}| () Int)
(declare-fun |.y{31}| () Int)
(declare-fun |.y{19}| () Int)
(declare-fun |.y{32}| () Int)
(declare-fun |.y{20}| () Int)
(declare-fun |.y{33}| () Int)
(declare-fun |.x{298}| () (Array Int Int))
(declare-fun |.y{34}| () (Array Int Int))
(declare-fun |.x{301}| () Int)
(declare-fun |.y{35}| () Int)
(declare-fun |.x{302}| () (Array Int Int))
(declare-fun |.y{36}| () (Array Int Int))
(declare-fun |.x{300}| () Int)
(declare-fun |.y{37}| () Int)
(declare-fun |.x{294}| () Int)
(declare-fun |.y{38}| () Int)
(declare-fun |.y{21}| () Int)
(declare-fun |.y{39}| () Int)
(declare-fun |.y{22}| () Int)
(declare-fun |.y{40}| () Int)
(declare-fun |.y{23}| () (Array Int Int))
(declare-fun |.y{41}| () (Array Int Int))
(declare-fun |.y{24}| () (Array Int Int))
(declare-fun |.y{42}| () (Array Int Int))
(declare-fun |.y{25}| () (Array Int Int))
(declare-fun |.y{43}| () (Array Int Int))
(declare-fun |.y{26}| () Int)
(declare-fun |.y{44}| () Int)
(declare-fun |.y{27}| () Int)
(declare-fun |.y{45}| () Int)
(declare-fun |.y{28}| () Int)
(declare-fun |.y{46}| () Int)
(declare-fun |.y{29}| () (Array Int Int))
(declare-fun |.y{47}| () (Array Int Int))
(declare-fun |.y{30}| () (Array Int Int))
(declare-fun |.y{48}| () (Array Int Int))
(declare-fun |.loc{4}| () Bool)
(declare-fun |.loc{7}| () Bool)
(declare-fun |.loc{5}| () Bool)
(declare-fun |.loc{8}| () Bool)
(declare-fun |.loc{6}| () Bool)
(declare-fun |.loc{9}| () Bool)
(declare-fun |.x{46}| () Int)
(declare-fun |.x{303}| () Int)
(declare-fun |.x{299}| () Int)
(define-fun .def_44 () Bool (! |.loc{4}| :next |.loc{7}|))
(define-fun .def_148 () Bool (not .def_44))
(define-fun .def_46 () Bool (! |.loc{5}| :next |.loc{8}|))
(define-fun .def_107 () Bool (not .def_46))
(define-fun .def_385 () Bool (and .def_107 .def_148))
(define-fun .def_48 () Bool (! |.loc{6}| :next |.loc{9}|))
(define-fun .def_68 () Bool (not .def_48))
(define-fun .def_386 () Bool (! (and .def_68 .def_385) :init true))
(define-fun .def_374 () Bool (and .def_48 .def_107))
(define-fun .def_14 () (Array Int Int) (! |.x{298}| :next |.y{34}|))
(define-fun .def_344 () Int (select .def_14 |.x{299}|))
(define-fun .def_18 () (Array Int Int) (! |.x{302}| :next |.y{36}|))
(define-fun .def_301 () Int (select .def_18 |.x{303}|))
(define-fun .def_345 () Bool (= .def_301 .def_344))
(define-fun .def_368 () Bool (not .def_345))
(define-fun .def_20 () Int (! |.x{300}| :next |.y{37}|))
(define-fun .def_22 () Int (! |.x{294}| :next |.y{38}|))
(define-fun .def_329 () Bool (<= .def_22 .def_20))
(define-fun .def_330 () Bool (not .def_329))
(define-fun .def_175 () Bool (not |.loc{7}|))
(define-fun .def_361 () Bool (and .def_175 .def_330))
(define-fun .def_362 () Bool (and .def_44 .def_361))
(define-fun .def_8 () Int (! |.x{297}| :next |.y{31}|))
(define-fun .def_333 () Bool (<= .def_8 0))
(define-fun .def_100 () Bool (<= |.x{299}| 0))
(define-fun .def_101 () Bool (not .def_100))
(define-fun .def_334 () Bool (or .def_101 .def_333))
(define-fun .def_363 () Bool (and .def_334 .def_362))
(define-fun .def_337 () Bool (not .def_333))
(define-fun .def_364 () Bool (and .def_337 .def_363))
(define-fun .def_16 () Int (! |.x{301}| :next |.y{35}|))
(define-fun .def_111 () Bool (<= .def_16 0))
(define-fun .def_109 () Bool (<= |.x{303}| 0))
(define-fun .def_110 () Bool (not .def_109))
(define-fun .def_112 () Bool (or .def_110 .def_111))
(define-fun .def_365 () Bool (and .def_112 .def_364))
(define-fun .def_114 () Bool (not .def_111))
(define-fun .def_366 () Bool (and .def_114 .def_365))
(define-fun .def_94 () Int (* (- 1) |.x{299}|))
(define-fun .def_167 () Int (+ .def_20 .def_94))
(define-fun .def_341 () Int (+ .def_8 .def_167))
(define-fun .def_342 () Bool (= .def_341 0))
(define-fun .def_367 () Bool (and .def_342 .def_366))
(define-fun .def_369 () Bool (and .def_367 .def_368))
(define-fun .def_116 () Int (* (- 1) |.x{303}|))
(define-fun .def_179 () Int (+ .def_20 .def_116))
(define-fun .def_311 () Int (+ .def_16 .def_179))
(define-fun .def_312 () Bool (= .def_311 0))
(define-fun .def_370 () Bool (and .def_312 .def_369))
(define-fun .def_371 () Bool (and |.loc{8}| .def_370))
(define-fun .def_64 () Bool (not |.loc{8}|))
(define-fun .def_352 () Bool (and .def_64 .def_148))
(define-fun .def_215 () Bool (= |.y{37}| 0))
(define-fun .def_353 () Bool (and .def_215 .def_352))
(define-fun .def_34 () Int (! |.y{26}| :next |.y{44}|))
(define-fun .def_305 () Bool (<= .def_34 .def_20))
(define-fun .def_354 () Bool (and .def_305 .def_353))
(define-fun .def_66 () Bool (= .def_8 |.y{31}|))
(define-fun .def_355 () Bool (and .def_66 .def_354))
(define-fun .def_194 () Bool (= .def_14 |.y{34}|))
(define-fun .def_356 () Bool (and .def_194 .def_355))
(define-fun .def_267 () Bool (= |.y{35}| .def_22))
(define-fun .def_357 () Bool (and .def_267 .def_356))
(define-fun .def_28 () (Array Int Int) (! |.y{23}| :next |.y{41}|))
(define-fun .def_269 () Bool (= |.y{36}| .def_28))
(define-fun .def_358 () Bool (and .def_269 .def_357))
(define-fun .def_274 () Bool (= |.y{38}| .def_34))
(define-fun .def_359 () Bool (and .def_274 .def_358))
(define-fun .def_360 () Bool (and |.loc{7}| .def_359))
(define-fun .def_372 () Bool (or .def_360 .def_371))
(define-fun .def_57 () Bool (= .def_22 |.y{38}|))
(define-fun .def_327 () Bool (and .def_57 .def_64))
(define-fun .def_328 () Bool (and .def_44 .def_327))
(define-fun .def_331 () Bool (and .def_328 .def_330))
(define-fun .def_332 () Bool (and .def_66 .def_331))
(define-fun .def_335 () Bool (and .def_332 .def_334))
(define-fun .def_336 () Bool (and .def_194 .def_335))
(define-fun .def_338 () Bool (and .def_336 .def_337))
(define-fun .def_339 () Bool (and .def_112 .def_338))
(define-fun .def_340 () Bool (and .def_114 .def_339))
(define-fun .def_343 () Bool (and .def_340 .def_342))
(define-fun .def_346 () Bool (and .def_343 .def_345))
(define-fun .def_206 () Int (* (- 1) |.y{37}|))
(define-fun .def_207 () Int (+ .def_20 .def_206))
(define-fun .def_208 () Bool (= .def_207 (- 1)))
(define-fun .def_347 () Bool (and .def_208 .def_346))
(define-fun .def_51 () Bool (= .def_16 |.y{35}|))
(define-fun .def_348 () Bool (and .def_51 .def_347))
(define-fun .def_349 () Bool (and |.loc{7}| .def_348))
(define-fun .def_350 () Bool (and .def_312 .def_349))
(define-fun .def_161 () Bool (= .def_18 |.y{36}|))
(define-fun .def_351 () Bool (and .def_161 .def_350))
(define-fun .def_373 () Bool (or .def_351 .def_372))
(define-fun .def_375 () Bool (and .def_373 .def_374))
(define-fun .def_40 () (Array Int Int) (! |.y{29}| :next |.y{47}|))
(define-fun .def_324 () Bool (= |.y{41}| .def_40))
(define-fun .def_282 () Bool (and .def_64 .def_175))
(define-fun .def_314 () Bool (and .def_44 .def_282))
(define-fun .def_315 () Bool (and .def_46 .def_314))
(define-fun .def_36 () Int (! |.y{27}| :next |.y{45}|))
(define-fun .def_261 () Bool (= |.y{44}| .def_36))
(define-fun .def_316 () Bool (and .def_261 .def_315))
(define-fun .def_317 () Bool (and .def_215 .def_316))
(define-fun .def_318 () Bool (and .def_66 .def_317))
(define-fun .def_319 () Bool (and .def_194 .def_318))
(define-fun .def_320 () Bool (and .def_267 .def_319))
(define-fun .def_321 () Bool (and .def_269 .def_320))
(define-fun .def_322 () Bool (and .def_274 .def_321))
(define-fun .def_323 () Bool (and .def_68 .def_322))
(define-fun .def_325 () Bool (and .def_323 .def_324))
(define-fun .def_237 () Bool (<= .def_36 .def_20))
(define-fun .def_326 () Bool (and .def_237 .def_325))
(define-fun .def_376 () Bool (or .def_326 .def_375))
(define-fun .def_306 () Bool (not .def_305))
(define-fun .def_302 () (Array Int Int) (store .def_28 |.x{299}| .def_301))
(define-fun .def_303 () Bool (= |.y{41}| .def_302))
(define-fun .def_158 () Bool (<= .def_22 0))
(define-fun .def_292 () Bool (or .def_101 .def_158))
(define-fun .def_286 () Int (+ .def_22 .def_94))
(define-fun .def_287 () Int (+ .def_20 .def_286))
(define-fun .def_288 () Bool (= .def_287 0))
(define-fun .def_283 () Bool (and .def_57 .def_282))
(define-fun .def_284 () Bool (and .def_148 .def_283))
(define-fun .def_289 () Bool (and .def_284 .def_288))
(define-fun .def_290 () Bool (and .def_48 .def_289))
(define-fun .def_291 () Bool (and .def_107 .def_290))
(define-fun .def_293 () Bool (and .def_291 .def_292))
(define-fun .def_159 () Bool (not .def_158))
(define-fun .def_294 () Bool (and .def_159 .def_293))
(define-fun .def_295 () Bool (and .def_66 .def_294))
(define-fun .def_296 () Bool (and .def_194 .def_295))
(define-fun .def_177 () Bool (= .def_34 |.y{44}|))
(define-fun .def_297 () Bool (and .def_177 .def_296))
(define-fun .def_298 () Bool (and .def_112 .def_297))
(define-fun .def_299 () Bool (and .def_114 .def_298))
(define-fun .def_300 () Bool (and .def_208 .def_299))
(define-fun .def_304 () Bool (and .def_300 .def_303))
(define-fun .def_307 () Bool (and .def_304 .def_306))
(define-fun .def_308 () Bool (and .def_51 .def_307))
(define-fun .def_309 () Bool (and .def_161 .def_308))
(define-fun .def_313 () Bool (and .def_309 .def_312))
(define-fun .def_377 () Bool (or .def_313 .def_376))
(define-fun .def_378 () Bool (and |.loc{9}| .def_377))
(define-fun .def_38 () Int (! |.y{28}| :next |.y{46}|))
(define-fun .def_277 () Bool (= |.y{45}| .def_38))
(define-fun .def_42 () (Array Int Int) (! |.y{30}| :next |.y{48}|))
(define-fun .def_271 () Bool (= |.y{41}| .def_42))
(define-fun .def_260 () Bool (and .def_46 .def_148))
(define-fun .def_262 () Bool (and .def_260 .def_261))
(define-fun .def_263 () Bool (and .def_215 .def_262))
(define-fun .def_264 () Bool (and .def_66 .def_263))
(define-fun .def_70 () Bool (not |.loc{9}|))
(define-fun .def_265 () Bool (and .def_70 .def_264))
(define-fun .def_266 () Bool (and .def_194 .def_265))
(define-fun .def_268 () Bool (and .def_266 .def_267))
(define-fun .def_270 () Bool (and .def_268 .def_269))
(define-fun .def_272 () Bool (and .def_270 .def_271))
(define-fun .def_188 () Bool (<= .def_38 .def_20))
(define-fun .def_273 () Bool (and .def_188 .def_272))
(define-fun .def_275 () Bool (and .def_273 .def_274))
(define-fun .def_276 () Bool (and .def_68 .def_275))
(define-fun .def_278 () Bool (and .def_276 .def_277))
(define-fun .def_202 () Bool (= .def_40 |.y{47}|))
(define-fun .def_279 () Bool (and .def_202 .def_278))
(define-fun .def_280 () Bool (and |.loc{7}| .def_279))
(define-fun .def_281 () Bool (and |.loc{8}| .def_280))
(define-fun .def_379 () Bool (or .def_281 .def_378))
(define-fun .def_238 () Bool (not .def_237))
(define-fun .def_154 () Int (select .def_18 |.x{299}|))
(define-fun .def_155 () (Array Int Int) (store .def_28 |.x{303}| .def_154))
(define-fun .def_156 () Bool (= |.y{41}| .def_155))
(define-fun .def_157 () Bool (and .def_51 .def_156))
(define-fun .def_239 () Bool (and .def_157 .def_238))
(define-fun .def_240 () Bool (and .def_159 .def_239))
(define-fun .def_241 () Bool (and .def_161 .def_240))
(define-fun .def_168 () Int (+ .def_16 .def_167))
(define-fun .def_169 () Bool (= .def_168 0))
(define-fun .def_242 () Bool (and .def_169 .def_241))
(define-fun .def_243 () Bool (and .def_57 .def_242))
(define-fun .def_244 () Bool (and |.loc{7}| .def_243))
(define-fun .def_172 () Bool (or .def_101 .def_111))
(define-fun .def_245 () Bool (and .def_172 .def_244))
(define-fun .def_246 () Bool (and |.loc{8}| .def_245))
(define-fun .def_247 () Bool (and .def_177 .def_246))
(define-fun .def_181 () Int (+ .def_22 .def_116))
(define-fun .def_182 () Int (+ .def_20 .def_181))
(define-fun .def_183 () Bool (= .def_182 0))
(define-fun .def_248 () Bool (and .def_183 .def_247))
(define-fun .def_185 () Bool (or .def_110 .def_158))
(define-fun .def_249 () Bool (and .def_185 .def_248))
(define-fun .def_191 () Bool (= .def_36 |.y{45}|))
(define-fun .def_250 () Bool (and .def_191 .def_249))
(define-fun .def_251 () Bool (and .def_66 .def_250))
(define-fun .def_252 () Bool (and .def_194 .def_251))
(define-fun .def_253 () Bool (and .def_68 .def_252))
(define-fun .def_254 () Bool (and .def_70 .def_253))
(define-fun .def_255 () Bool (and .def_202 .def_254))
(define-fun .def_256 () Bool (and .def_44 .def_255))
(define-fun .def_257 () Bool (and .def_46 .def_256))
(define-fun .def_258 () Bool (and .def_114 .def_257))
(define-fun .def_259 () Bool (and .def_208 .def_258))
(define-fun .def_380 () Bool (or .def_259 .def_379))
(define-fun .def_235 () Bool (= .def_28 |.y{47}|))
(define-fun .def_26 () Int (! |.y{22}| :next |.y{40}|))
(define-fun .def_233 () Bool (= .def_26 |.y{46}|))
(define-fun .def_24 () Int (! |.y{21}| :next |.y{39}|))
(define-fun .def_231 () Bool (= .def_24 |.y{45}|))
(define-fun .def_229 () Bool (= .def_22 |.y{44}|))
(define-fun .def_227 () Bool (= .def_20 |.y{38}|))
(define-fun .def_10 () Int (! |.y{19}| :next |.y{32}|))
(define-fun .def_225 () Bool (= |.y{31}| .def_10))
(define-fun .def_32 () (Array Int Int) (! |.y{25}| :next |.y{43}|))
(define-fun .def_221 () Bool (= |.y{41}| .def_32))
(define-fun .def_30 () (Array Int Int) (! |.y{24}| :next |.y{42}|))
(define-fun .def_210 () Bool (= .def_30 |.y{48}|))
(define-fun .def_211 () Bool (and .def_51 .def_210))
(define-fun .def_212 () Bool (and .def_161 .def_211))
(define-fun .def_213 () Bool (and |.loc{8}| .def_212))
(define-fun .def_214 () Bool (and .def_175 .def_213))
(define-fun .def_216 () Bool (and .def_214 .def_215))
(define-fun .def_217 () Bool (and .def_194 .def_216))
(define-fun .def_218 () Bool (and .def_68 .def_217))
(define-fun .def_219 () Bool (and .def_70 .def_218))
(define-fun .def_220 () Bool (and .def_44 .def_219))
(define-fun .def_222 () Bool (and .def_220 .def_221))
(define-fun .def_223 () Bool (and .def_107 .def_222))
(define-fun .def_12 () Int (! |.y{20}| :next |.y{33}|))
(define-fun .def_86 () Bool (<= .def_26 .def_12))
(define-fun .def_224 () Bool (and .def_86 .def_223))
(define-fun .def_226 () Bool (and .def_224 .def_225))
(define-fun .def_228 () Bool (and .def_226 .def_227))
(define-fun .def_230 () Bool (and .def_228 .def_229))
(define-fun .def_232 () Bool (and .def_230 .def_231))
(define-fun .def_234 () Bool (and .def_232 .def_233))
(define-fun .def_236 () Bool (and .def_234 .def_235))
(define-fun .def_381 () Bool (or .def_236 .def_380))
(define-fun .def_200 () Bool (= .def_42 |.y{48}|))
(define-fun .def_198 () Bool (= .def_38 |.y{46}|))
(define-fun .def_189 () Bool (not .def_188))
(define-fun .def_160 () Bool (and .def_157 .def_159))
(define-fun .def_162 () Bool (and .def_160 .def_161))
(define-fun .def_170 () Bool (and .def_162 .def_169))
(define-fun .def_171 () Bool (and .def_57 .def_170))
(define-fun .def_173 () Bool (and .def_171 .def_172))
(define-fun .def_174 () Bool (and |.loc{8}| .def_173))
(define-fun .def_176 () Bool (and .def_174 .def_175))
(define-fun .def_178 () Bool (and .def_176 .def_177))
(define-fun .def_184 () Bool (and .def_178 .def_183))
(define-fun .def_186 () Bool (and .def_184 .def_185))
(define-fun .def_187 () Bool (and .def_148 .def_186))
(define-fun .def_190 () Bool (and .def_187 .def_189))
(define-fun .def_192 () Bool (and .def_190 .def_191))
(define-fun .def_193 () Bool (and .def_66 .def_192))
(define-fun .def_195 () Bool (and .def_193 .def_194))
(define-fun .def_196 () Bool (and .def_68 .def_195))
(define-fun .def_197 () Bool (and .def_70 .def_196))
(define-fun .def_199 () Bool (and .def_197 .def_198))
(define-fun .def_201 () Bool (and .def_199 .def_200))
(define-fun .def_203 () Bool (and .def_201 .def_202))
(define-fun .def_204 () Bool (and .def_46 .def_203))
(define-fun .def_205 () Bool (and .def_114 .def_204))
(define-fun .def_209 () Bool (and .def_205 .def_208))
(define-fun .def_382 () Bool (or .def_209 .def_381))
(define-fun .def_145 () Bool (<= |.y{39}| 0))
(define-fun .def_146 () Bool (not .def_145))
(define-fun .def_141 () Bool (<= |.y{38}| 0))
(define-fun .def_142 () Bool (not .def_141))
(define-fun .def_138 () Bool (<= |.y{37}| 0))
(define-fun .def_139 () Bool (not .def_138))
(define-fun .def_135 () Bool (<= |.y{35}| 0))
(define-fun .def_136 () Bool (not .def_135))
(define-fun .def_131 () Bool (<= |.y{40}| 0))
(define-fun .def_132 () Bool (not .def_131))
(define-fun .def_129 () Bool (= |.y{33}| 0))
(define-fun .def_127 () Bool (<= |.y{32}| 0))
(define-fun .def_128 () Bool (not .def_127))
(define-fun .def_130 () Bool (and .def_128 .def_129))
(define-fun .def_133 () Bool (and .def_130 .def_132))
(define-fun .def_134 () Bool (and |.loc{7}| .def_133))
(define-fun .def_137 () Bool (and .def_134 .def_136))
(define-fun .def_140 () Bool (and .def_137 .def_139))
(define-fun .def_143 () Bool (and .def_140 .def_142))
(define-fun .def_144 () Bool (and .def_64 .def_143))
(define-fun .def_147 () Bool (and .def_144 .def_146))
(define-fun .def_149 () Bool (and .def_147 .def_148))
(define-fun .def_150 () Bool (and .def_66 .def_149))
(define-fun .def_151 () Bool (and .def_68 .def_150))
(define-fun .def_152 () Bool (and .def_70 .def_151))
(define-fun .def_153 () Bool (and .def_107 .def_152))
(define-fun .def_383 () Bool (or .def_153 .def_382))
(define-fun .def_125 () Bool (= .def_20 |.y{37}|))
(define-fun .def_123 () Bool (= .def_10 |.y{32}|))
(define-fun .def_119 () Int (+ .def_16 .def_116))
(define-fun .def_120 () Int (+ .def_12 .def_119))
(define-fun .def_121 () Bool (= .def_120 0))
(define-fun .def_99 () Bool (<= .def_10 0))
(define-fun .def_105 () Bool (not .def_99))
(define-fun .def_102 () Bool (or .def_99 .def_101))
(define-fun .def_95 () Int (+ .def_12 .def_94))
(define-fun .def_96 () Int (+ .def_10 .def_95))
(define-fun .def_97 () Bool (= .def_96 0))
(define-fun .def_87 () Bool (not .def_86))
(define-fun .def_83 () (Array Int Int) (store .def_14 |.x{299}| |.x{46}|))
(define-fun .def_84 () Bool (= |.y{34}| .def_83))
(define-fun .def_79 () (Array Int Int) (store .def_18 |.x{303}| |.x{46}|))
(define-fun .def_80 () Bool (= |.y{36}| .def_79))
(define-fun .def_73 () Int (* (- 1) |.y{33}|))
(define-fun .def_74 () Int (+ .def_12 .def_73))
(define-fun .def_75 () Bool (= .def_74 (- 1)))
(define-fun .def_62 () Bool (= .def_32 |.y{43}|))
(define-fun .def_60 () Bool (= .def_30 |.y{42}|))
(define-fun .def_55 () Bool (= .def_28 |.y{41}|))
(define-fun .def_53 () Bool (= .def_26 |.y{40}|))
(define-fun .def_50 () Bool (= .def_24 |.y{39}|))
(define-fun .def_52 () Bool (and .def_50 .def_51))
(define-fun .def_54 () Bool (and .def_52 .def_53))
(define-fun .def_56 () Bool (and .def_54 .def_55))
(define-fun .def_58 () Bool (and .def_56 .def_57))
(define-fun .def_59 () Bool (and |.loc{7}| .def_58))
(define-fun .def_61 () Bool (and .def_59 .def_60))
(define-fun .def_63 () Bool (and .def_61 .def_62))
(define-fun .def_65 () Bool (and .def_63 .def_64))
(define-fun .def_67 () Bool (and .def_65 .def_66))
(define-fun .def_69 () Bool (and .def_67 .def_68))
(define-fun .def_71 () Bool (and .def_69 .def_70))
(define-fun .def_76 () Bool (and .def_71 .def_75))
(define-fun .def_81 () Bool (and .def_76 .def_80))
(define-fun .def_85 () Bool (and .def_81 .def_84))
(define-fun .def_88 () Bool (and .def_85 .def_87))
(define-fun .def_98 () Bool (and .def_88 .def_97))
(define-fun .def_103 () Bool (and .def_98 .def_102))
(define-fun .def_104 () Bool (and .def_44 .def_103))
(define-fun .def_106 () Bool (and .def_104 .def_105))
(define-fun .def_108 () Bool (and .def_106 .def_107))
(define-fun .def_113 () Bool (and .def_108 .def_112))
(define-fun .def_115 () Bool (and .def_113 .def_114))
(define-fun .def_122 () Bool (and .def_115 .def_121))
(define-fun .def_124 () Bool (and .def_122 .def_123))
(define-fun .def_126 () Bool (and .def_124 .def_125))
(define-fun .def_384 () Bool (! (or .def_126 .def_383) :trans true))
(define-fun .def_387 () Bool (and .def_48 .def_260))
(define-fun .def_388 () Bool (! (not .def_387) :invar-property 0))
(assert true)
